p tw 90 97
1 2
2 13
3 4
4 5
5 6
5 28
6 7
7 8
8 9
9 10
10 11
11 12
12 14
13 24
14 15
15 16
16 17
17 18
17 25
18 19
19 20
20 21
21 22
22 23
23 15
24 35
25 26
26 27
27 3
28 29
29 30
30 31
31 32
32 33
33 34
34 36
35 46
36 37
37 38
38 39
39 40
40 41
41 42
41 83
42 43
43 44
44 45
45 47
46 57
47 48
48 49
49 50
50 51
50 80
51 52
52 53
53 54
53 75
54 55
55 56
56 58
57 68
57 28
58 59
59 60
60 61
61 62
62 63
62 48
63 64
64 65
65 66
65 48
66 67
67 69
68 79
69 70
70 71
71 72
72 73
73 74
74 60
75 76
76 77
77 78
78 48
79 90
80 81
81 82
82 39
83 84
84 85
85 86
86 87
87 88
88 89
90 3
